p cnf 455 754               
-2 -1 -46 0
46 -50 0
-1 47 0
-2 47 0
1 2 -47 0
-47 -3 -48 0
48 -50 0
3 47 -49 0
49 -50 0
50 -91 0
-5 -4 -51 0
51 -55 0
-4 52 0
-5 52 0
4 5 -52 0
-52 -6 -53 0
53 -55 0
6 52 -54 0
54 -55 0
55 -91 0
-8 -7 -56 0
56 -60 0
-7 57 0
-8 57 0
7 8 -57 0
-57 -9 -58 0
58 -60 0
9 57 -59 0
59 -60 0
60 -91 0
-11 -10 -61 0
61 -65 0
-10 62 0
-11 62 0
10 11 -62 0
-62 -12 -63 0
63 -65 0
12 62 -64 0
64 -65 0
65 -91 0
-14 -13 -66 0
66 -70 0
-13 67 0
-14 67 0
13 14 -67 0
-67 -15 -68 0
68 -70 0
15 67 -69 0
69 -70 0
70 -91 0
-17 -16 -71 0
71 -75 0
-16 72 0
-17 72 0
16 17 -72 0
-72 -18 -73 0
73 -75 0
18 72 -74 0
74 -75 0
75 -91 0
-20 -19 -76 0
76 -80 0
-19 77 0
-20 77 0
19 20 -77 0
-77 -21 -78 0
78 -80 0
21 77 -79 0
79 -80 0
80 -91 0
-23 -22 -81 0
81 -85 0
-22 82 0
-23 82 0
22 23 -82 0
-82 -24 -83 0
83 -85 0
24 82 -84 0
84 -85 0
85 -91 0
-26 -25 -86 0
86 -90 0
-25 87 0
-26 87 0
25 26 -87 0
-87 -27 -88 0
88 -90 0
27 87 -89 0
89 -90 0
90 -91 0
91 -291 0
-29 -28 -92 0
92 -96 0
-28 93 0
-29 93 0
28 29 -93 0
-93 -30 -94 0
94 -96 0
30 93 -95 0
95 -96 0
96 -107 0
-32 -31 -97 0
97 -101 0
-31 98 0
-32 98 0
31 32 -98 0
-98 -33 -99 0
99 -101 0
33 98 -100 0
100 -101 0
101 -107 0
-35 -34 -102 0
102 -106 0
-34 103 0
-35 103 0
34 35 -103 0
-103 -36 -104 0
104 -106 0
36 103 -105 0
105 -106 0
106 -107 0
107 -291 0
-38 -37 -108 0
108 -112 0
-37 109 0
-38 109 0
37 38 -109 0
-109 -39 -110 0
110 -112 0
39 109 -111 0
111 -112 0
112 -123 0
-41 -40 -113 0
113 -117 0
-40 114 0
-41 114 0
40 41 -114 0
-114 -42 -115 0
115 -117 0
42 114 -116 0
116 -117 0
117 -123 0
-44 -43 -118 0
118 -122 0
-43 119 0
-44 119 0
43 44 -119 0
-119 -45 -120 0
120 -122 0
45 119 -121 0
121 -122 0
122 -123 0
123 -291 0
31 162 0
-34 162 0
-31 34 -162 0
32 163 0
-35 163 0
33 164 0
-36 164 0
-162 -163 -164 165 0
34 166 0
-31 166 0
35 167 0
-32 167 0
36 168 0
-33 168 0
-166 -167 -168 169 0
-165 -169 170 0
40 171 0
-43 171 0
-40 43 -171 0
41 172 0
-44 172 0
42 173 0
-45 173 0
-171 -172 -173 174 0
43 175 0
-40 175 0
44 176 0
-41 176 0
45 177 0
-42 177 0
-175 -176 -177 178 0
-174 -178 179 0
-170 -179 180 0
-180 -181 0
28 143 0
-34 143 0
29 144 0
-35 144 0
30 145 0
-36 145 0
-143 -144 -145 146 0
34 147 0
-28 147 0
35 148 0
-29 148 0
36 149 0
-30 149 0
-147 -148 -149 150 0
-146 -150 151 0
37 152 0
-43 152 0
38 153 0
-44 153 0
39 154 0
-45 154 0
-152 -153 -154 155 0
43 156 0
-37 156 0
44 157 0
-38 157 0
45 158 0
-39 158 0
-156 -157 -158 159 0
-155 -159 160 0
-151 -160 161 0
-161 -181 0
28 124 0
-31 124 0
29 125 0
-32 125 0
30 126 0
-33 126 0
-30 33 -126 0
-124 -125 -126 127 0
31 128 0
-28 128 0
32 129 0
-29 129 0
33 130 0
-30 130 0
-128 -129 -130 131 0
-127 -131 132 0
37 133 0
-40 133 0
38 134 0
-41 134 0
39 135 0
-42 135 0
-39 42 -135 0
-133 -134 -135 136 0
40 137 0
-37 137 0
41 138 0
-38 138 0
42 139 0
-39 139 0
-137 -138 -139 140 0
-136 -140 141 0
-132 -141 142 0
-142 -181 0
181 -291 0
25 281 0
30 -278 0
39 -278 0
-30 -39 278 0
-278 281 0
26 282 0
33 -279 0
42 -279 0
-33 -42 279 0
-279 282 0
27 283 0
36 -280 0
45 -280 0
-36 -45 280 0
-280 283 0
-281 -282 -283 284 0
278 285 0
-25 285 0
279 286 0
-26 286 0
280 287 0
-27 287 0
-285 -286 -287 288 0
-284 -288 289 0
22 269 0
30 -266 0
38 -266 0
-30 -38 266 0
-266 269 0
23 270 0
33 -267 0
41 -267 0
-33 -41 267 0
-267 270 0
24 271 0
36 -268 0
44 -268 0
-36 -44 268 0
-268 271 0
-269 -270 -271 272 0
266 273 0
-22 273 0
267 274 0
-23 274 0
268 275 0
-24 275 0
-273 -274 -275 276 0
-272 -276 277 0
19 257 0
30 -254 0
37 -254 0
-30 -37 254 0
-254 257 0
20 258 0
33 -255 0
40 -255 0
-33 -40 255 0
-255 258 0
21 259 0
36 -256 0
43 -256 0
-36 -43 256 0
-256 259 0
-257 -258 -259 260 0
254 261 0
-19 261 0
255 262 0
-20 262 0
256 263 0
-21 263 0
-261 -262 -263 264 0
-260 -264 265 0
16 245 0
29 -242 0
39 -242 0
-29 -39 242 0
-242 245 0
17 246 0
32 -243 0
42 -243 0
-32 -42 243 0
-243 246 0
18 247 0
35 -244 0
45 -244 0
-35 -45 244 0
-244 247 0
-245 -246 -247 248 0
242 249 0
-16 249 0
243 250 0
-17 250 0
244 251 0
-18 251 0
-249 -250 -251 252 0
-248 -252 253 0
13 233 0
29 -230 0
38 -230 0
-29 -38 230 0
-230 233 0
14 234 0
32 -231 0
41 -231 0
-32 -41 231 0
-231 234 0
15 235 0
35 -232 0
44 -232 0
-35 -44 232 0
-232 235 0
-233 -234 -235 236 0
230 237 0
-13 237 0
231 238 0
-14 238 0
232 239 0
-15 239 0
-237 -238 -239 240 0
-236 -240 241 0
10 221 0
29 -218 0
37 -218 0
-29 -37 218 0
-218 221 0
11 222 0
32 -219 0
40 -219 0
-32 -40 219 0
-219 222 0
12 223 0
35 -220 0
43 -220 0
-35 -43 220 0
-220 223 0
-221 -222 -223 224 0
218 225 0
-10 225 0
219 226 0
-11 226 0
220 227 0
-12 227 0
-225 -226 -227 228 0
-224 -228 229 0
7 209 0
28 -206 0
39 -206 0
-28 -39 206 0
-206 209 0
8 210 0
31 -207 0
42 -207 0
-31 -42 207 0
-207 210 0
9 211 0
34 -208 0
45 -208 0
-34 -45 208 0
-208 211 0
-209 -210 -211 212 0
206 213 0
-7 213 0
207 214 0
-8 214 0
208 215 0
-9 215 0
-213 -214 -215 216 0
-212 -216 217 0
4 197 0
28 -194 0
38 -194 0
-28 -38 194 0
-194 197 0
5 198 0
31 -195 0
41 -195 0
-31 -41 195 0
-195 198 0
6 199 0
34 -196 0
44 -196 0
-34 -44 196 0
-196 199 0
-197 -198 -199 200 0
194 201 0
-4 201 0
195 202 0
-5 202 0
196 203 0
-6 203 0
-201 -202 -203 204 0
-200 -204 205 0
1 185 0
28 -182 0
37 -182 0
-28 -37 182 0
-182 185 0
2 186 0
31 -183 0
40 -183 0
-31 -40 183 0
-183 186 0
3 187 0
34 -184 0
43 -184 0
-34 -43 184 0
-184 187 0
-185 -186 -187 188 0
182 189 0
-1 189 0
183 190 0
-2 190 0
184 191 0
-3 191 0
-189 -190 -191 192 0
-188 -192 193 0
-289 -277 -265 -253 -241 -229 -217 -205 -193 -290 0
290 -291 0
-28 32 -292 0
292 -372 0
-28 -32 293 0
28 32 293 0
-32 32 293 0
-29 31 -294 0
-293 294 -295 0
295 -372 0
-29 -31 296 0
29 31 296 0
-31 31 296 0
-293 -296 297 0
-297 126 -298 0
298 -372 0
-30 -33 299 0
30 33 299 0
-33 33 299 0
-297 -299 300 0
-34 35 -301 0
-300 301 -302 0
302 -372 0
-34 -35 303 0
34 35 303 0
-35 35 303 0
-300 -303 304 0
-37 41 -305 0
-304 305 -306 0
306 -372 0
-37 -41 307 0
37 41 307 0
-41 41 307 0
-304 -307 308 0
-38 40 -309 0
-308 309 -310 0
310 -372 0
-38 -40 311 0
38 40 311 0
-40 40 311 0
-308 -311 312 0
-312 135 -313 0
313 -372 0
-39 -42 314 0
39 42 314 0
-42 42 314 0
-312 -314 315 0
-43 44 -316 0
-315 316 -317 0
317 -372 0
-43 -44 318 0
43 44 318 0
-44 44 318 0
-315 -318 319 0
-1 14 -320 0
-319 320 -321 0
321 -372 0
-1 -14 322 0
1 14 322 0
-14 14 322 0
-319 -322 323 0
-2 13 -324 0
-323 324 -325 0
325 -372 0
-2 -13 326 0
2 13 326 0
-13 13 326 0
-323 -326 327 0
-3 15 -328 0
-327 328 -329 0
329 -372 0
-3 -15 330 0
3 15 330 0
-15 15 330 0
-327 -330 331 0
-4 11 -332 0
-331 332 -333 0
333 -372 0
-4 -11 334 0
4 11 334 0
-11 11 334 0
-331 -334 335 0
-5 10 -336 0
-335 336 -337 0
337 -372 0
-5 -10 338 0
5 10 338 0
-10 10 338 0
-335 -338 339 0
-6 12 -340 0
-339 340 -341 0
341 -372 0
-6 -12 342 0
6 12 342 0
-12 12 342 0
-339 -342 343 0
-7 17 -344 0
-343 344 -345 0
345 -372 0
-7 -17 346 0
7 17 346 0
-17 17 346 0
-343 -346 347 0
-8 16 -348 0
-347 348 -349 0
349 -372 0
-8 -16 350 0
8 16 350 0
-16 16 350 0
-347 -350 351 0
-9 18 -352 0
-351 352 -353 0
353 -372 0
-9 -18 354 0
9 18 354 0
-18 18 354 0
-351 -354 355 0
-19 23 -356 0
-355 356 -357 0
357 -372 0
-19 -23 358 0
19 23 358 0
-23 23 358 0
-355 -358 359 0
-20 22 -360 0
-359 360 -361 0
361 -372 0
-20 -22 362 0
20 22 362 0
-22 22 362 0
-359 -362 363 0
-21 24 -364 0
-363 364 -365 0
365 -372 0
-21 -24 366 0
21 24 366 0
-24 24 366 0
-363 -366 367 0
-25 26 -368 0
-367 368 -369 0
369 -372 0
372 -454 0
-29 30 -373 0
373 -453 0
-29 -30 374 0
29 30 374 0
-30 30 374 0
-374 162 -375 0
375 -453 0
-31 -34 376 0
31 34 376 0
-34 34 376 0
-374 -376 377 0
-32 36 -378 0
-377 378 -379 0
379 -453 0
-32 -36 380 0
32 36 380 0
-36 36 380 0
-377 -380 381 0
-33 35 -382 0
-381 382 -383 0
383 -453 0
-33 -35 384 0
33 35 384 0
-35 35 384 0
-381 -384 385 0
-38 39 -386 0
-385 386 -387 0
387 -453 0
-38 -39 388 0
38 39 388 0
-39 39 388 0
-385 -388 389 0
-389 171 -390 0
390 -453 0
-40 -43 391 0
40 43 391 0
-43 43 391 0
-389 -391 392 0
-41 45 -393 0
-392 393 -394 0
394 -453 0
-41 -45 395 0
41 45 395 0
-45 45 395 0
-392 -395 396 0
-42 44 -397 0
-396 397 -398 0
398 -453 0
-42 -44 399 0
42 44 399 0
-44 44 399 0
-396 -399 400 0
-2 3 -401 0
-400 401 -402 0
402 -453 0
-2 -3 403 0
2 3 403 0
-3 3 403 0
-400 -403 404 0
-4 7 -405 0
-404 405 -406 0
406 -453 0
-4 -7 407 0
4 7 407 0
-7 7 407 0
-404 -407 408 0
-5 9 -409 0
-408 409 -410 0
410 -453 0
-5 -9 411 0
5 9 411 0
-9 9 411 0
-408 -411 412 0
-6 8 -413 0
-412 413 -414 0
414 -453 0
-6 -8 415 0
6 8 415 0
-8 8 415 0
-412 -415 416 0
-10 19 -417 0
-416 417 -418 0
418 -453 0
-10 -19 419 0
10 19 419 0
-19 19 419 0
-416 -419 420 0
-11 21 -421 0
-420 421 -422 0
422 -453 0
-11 -21 423 0
11 21 423 0
-21 21 423 0
-420 -423 424 0
-12 20 -425 0
-424 425 -426 0
426 -453 0
-12 -20 427 0
12 20 427 0
-20 20 427 0
-424 -427 428 0
-13 25 -429 0
-428 429 -430 0
430 -453 0
-13 -25 431 0
13 25 431 0
-25 25 431 0
-428 -431 432 0
-14 27 -433 0
-432 433 -434 0
434 -453 0
-14 -27 435 0
14 27 435 0
-27 27 435 0
-432 -435 436 0
-15 26 -437 0
-436 437 -438 0
438 -453 0
-15 -26 439 0
15 26 439 0
-26 26 439 0
-436 -439 440 0
-16 22 -441 0
-440 441 -442 0
442 -453 0
-16 -22 443 0
16 22 443 0
-22 22 443 0
-440 -443 444 0
-17 24 -445 0
-444 445 -446 0
446 -453 0
-17 -24 447 0
17 24 447 0
-24 24 447 0
-444 -447 448 0
-18 23 -449 0
-448 449 -450 0
450 -453 0
453 -454 0
291 0
454 0
